c description: Random 3-CNF over 22 variables and 94 clauses
c generator: CNFgen (0.9.2)
c copyright: (C) 2012-2022 Massimo Lauria <massimo.lauria@uniroma1.it>
c url: https://massimolauria.net/cnfgen
c command line: cnfgen --output CNF_4.28/22_bit_94_97.cnf randkcnf 3 22 94
c
p cnf 22 94
-5 6 -13 0
1 -5 11 0
-7 20 -22 0
-4 -12 22 0
-8 9 16 0
1 -9 -11 0
2 3 5 0
3 -21 -22 0
-4 6 7 0
2 6 -13 0
3 5 7 0
-5 -16 -18 0
-8 -18 -19 0
-10 -17 18 0
-1 4 22 0
8 -15 -18 0
13 21 22 0
1 15 -22 0
9 -14 -15 0
2 -14 19 0
-13 -15 19 0
14 -18 -19 0
-3 13 20 0
9 -13 14 0
6 15 22 0
-3 -4 9 0
4 -10 -16 0
-2 -9 11 0
8 13 -17 0
7 -16 18 0
3 -7 11 0
2 6 9 0
6 -10 -21 0
11 15 16 0
14 21 -22 0
-6 7 -18 0
5 12 21 0
-2 -6 22 0
4 -13 18 0
-18 19 20 0
3 -4 13 0
-1 -4 -18 0
-9 -13 -19 0
-4 -13 19 0
-2 5 16 0
-1 3 -19 0
6 15 20 0
7 8 -19 0
-3 -4 14 0
-4 -9 10 0
2 -4 19 0
11 -12 18 0
-8 -15 -21 0
-9 13 -17 0
-1 -5 19 0
-2 12 14 0
-11 13 18 0
-3 5 -11 0
7 13 -20 0
-19 -20 22 0
14 17 -22 0
-5 6 -15 0
-4 9 22 0
2 -18 -22 0
10 -11 16 0
-10 -11 19 0
1 19 22 0
13 -19 22 0
5 7 -14 0
2 -4 -8 0
-10 17 -19 0
-6 16 18 0
-7 -9 12 0
3 -6 14 0
5 -10 17 0
-11 13 -18 0
3 -12 -19 0
1 3 -10 0
5 9 19 0
-2 -10 16 0
-10 -15 20 0
-17 19 -22 0
9 -12 -22 0
12 19 21 0
-3 -11 16 0
11 -12 17 0
3 -5 -20 0
1 12 15 0
-2 -15 21 0
-2 -14 15 0
1 -9 -10 0
2 -6 -14 0
5 -8 17 0
-3 -19 -21 0
